NAME          
ROWS
 N  OBJ
 L  c1
COLUMNS
    MARKER    'MARKER'                 'INTORG'
    x[1]      c1        217
    x[1]      OBJ       -229
    x[2]      c1        120
    x[2]      OBJ       -209
    x[3]      c1        153
    x[3]      OBJ       -235
    x[4]      c1        908
    x[4]      OBJ       -840
    x[5]      c1        502
    x[5]      OBJ       -405
    x[6]      c1        727
    x[6]      OBJ       -724
    x[7]      c1        588
    x[7]      OBJ       -515
    x[8]      c1        628
    x[8]      OBJ       -575
    x[9]      c1        384
    x[9]      OBJ       -465
    x[10]     c1        281
    x[10]     OBJ       -201
    x[11]     c1        904
    x[11]     OBJ       -914
    x[12]     c1        172
    x[12]     OBJ       -188
    x[13]     c1        167
    x[13]     OBJ       -207
    x[14]     c1        458
    x[14]     OBJ       -433
    x[15]     c1        313
    x[15]     OBJ       -386
    x[16]     c1        140
    x[16]     OBJ       -137
    x[17]     c1        301
    x[17]     OBJ       -245
    x[18]     c1        471
    x[18]     OBJ       -520
    x[19]     c1        36
    x[19]     OBJ       -21
    x[20]     c1        800
    x[20]     OBJ       -728
    x[21]     c1        673
    x[21]     OBJ       -756
    x[22]     c1        166
    x[22]     OBJ       -185
    x[23]     c1        -15
    x[23]     OBJ       -26
    x[24]     c1        286
    x[24]     OBJ       -304
    x[25]     c1        142
    x[25]     OBJ       -75
    x[26]     c1        836
    x[26]     OBJ       -771
    x[27]     c1        970
    x[27]     OBJ       -947
    x[28]     c1        1007
    x[28]     OBJ       -990
    x[29]     c1        289
    x[29]     OBJ       -370
    x[30]     c1        236
    x[30]     OBJ       -315
    x[31]     c1        314
    x[31]     OBJ       -288
    x[32]     c1        789
    x[32]     OBJ       -835
    x[33]     c1        608
    x[33]     OBJ       -524
    x[34]     c1        -13
    x[34]     OBJ       -39
    x[35]     c1        354
    x[35]     OBJ       -352
    x[36]     c1        764
    x[36]     OBJ       -705
    x[37]     c1        135
    x[37]     OBJ       -54
    x[38]     c1        282
    x[38]     OBJ       -274
    x[39]     c1        81
    x[39]     OBJ       -25
    x[40]     c1        424
    x[40]     OBJ       -386
RHS
    rhs       c1        8299
RANGES
BOUNDS
 BV bounds    x[1]
 BV bounds    x[2]
 BV bounds    x[3]
 BV bounds    x[4]
 BV bounds    x[5]
 BV bounds    x[6]
 BV bounds    x[7]
 BV bounds    x[8]
 BV bounds    x[9]
 BV bounds    x[10]
 BV bounds    x[11]
 BV bounds    x[12]
 BV bounds    x[13]
 BV bounds    x[14]
 BV bounds    x[15]
 BV bounds    x[16]
 BV bounds    x[17]
 BV bounds    x[18]
 BV bounds    x[19]
 BV bounds    x[20]
 BV bounds    x[21]
 BV bounds    x[22]
 BV bounds    x[23]
 BV bounds    x[24]
 BV bounds    x[25]
 BV bounds    x[26]
 BV bounds    x[27]
 BV bounds    x[28]
 BV bounds    x[29]
 BV bounds    x[30]
 BV bounds    x[31]
 BV bounds    x[32]
 BV bounds    x[33]
 BV bounds    x[34]
 BV bounds    x[35]
 BV bounds    x[36]
 BV bounds    x[37]
 BV bounds    x[38]
 BV bounds    x[39]
 BV bounds    x[40]
ENDATA
